solution status: optimal solution found
objective value:                    0.999999715660802
$_135_y                                            25 	(obj:0)
$_135_z                                            25 	(obj:0)
$_150_y                                            21 	(obj:0)
$_150_z                              24.0000000080347 	(obj:0)
$_134_y                                            24 	(obj:0)
$_134_z                                            25 	(obj:0)
$_151_y                              21.0000000236804 	(obj:0)
$_151_z                              19.9999999848464 	(obj:0)
$_149_y                              22.0000001162506 	(obj:0)
$_149_z                              19.9999999836672 	(obj:0)
$_152_y                               19.999999982196 	(obj:0)
$_152_z                                            20 	(obj:0)
$_144_y                              23.0000001149143 	(obj:0)
$_144_z                                            24 	(obj:0)
$_145_y                                            25 	(obj:0)
$_145_z                              20.9999999004142 	(obj:0)
$_147_y                              24.9999998860636 	(obj:0)
$_147_z                              19.9999998354205 	(obj:0)
$_153_y                              19.9999999902369 	(obj:0)
$_153_z                                            19 	(obj:0)
$_148_y                                            24 	(obj:0)
$_148_z                                            20 	(obj:0)
$_133_y                              24.0000000080957 	(obj:0)
$_133_z                                            23 	(obj:0)
$_136_y                                            25 	(obj:0)
$_136_z                                            24 	(obj:0)
$_138_y                              24.0000001069786 	(obj:0)
$_138_z                              21.9999998435142 	(obj:0)
$_146_y                                            24 	(obj:0)
$_146_z                                            19 	(obj:0)
$_137_y                                            25 	(obj:0)
$_137_z                              22.0000001194119 	(obj:0)
x33                              -9.82899212309515e-09 	(obj:1)
x34                              -9.65798416222161e-09 	(obj:1)
x35                              -9.82899212309515e-09 	(obj:1)
x36                              -9.82179957244168e-09 	(obj:1)
x37                              -9.82899212309515e-09 	(obj:1)
x38                              -9.82899212309515e-09 	(obj:1)
x39                              -9.82899212309515e-09 	(obj:1)
x40                              -9.83049923437179e-09 	(obj:1)
x41                              -9.82899212309515e-09 	(obj:1)
x42                              -9.83239875542233e-09 	(obj:1)
x43                              -9.82899212309515e-09 	(obj:1)
x44                              -9.65798416222161e-09 	(obj:1)
x45                              -9.82868186616406e-09 	(obj:1)
x46                              -9.82899212309515e-09 	(obj:1)
x47                              -9.82899212309515e-09 	(obj:1)
x48                              -9.82864040907899e-09 	(obj:1)
x49                              -9.8287686578349e-09 	(obj:1)
x50                              -9.82880128252707e-09 	(obj:1)
x51                              -9.8241448682627e-09 	(obj:1)
x52                              -9.82899212309515e-09 	(obj:1)
x55                              -9.8202677037836e-09 	(obj:1)
x56                                                 1 	(obj:1)
x57                              -9.82899212309515e-09 	(obj:1)
x58                              -9.65798416222161e-09 	(obj:1)
x59                              -9.82859898353743e-09 	(obj:1)
x60                              -9.82877021956969e-09 	(obj:1)
x61                              -9.65798416222161e-09 	(obj:1)
x62                              -9.82899212309515e-09 	(obj:1)
x63                              -9.82899212309515e-09 	(obj:1)
x64                              -9.82899212309515e-09 	(obj:1)
